(set-logic QF_LIA)
(declare-fun x () Int)
(declare-fun z () Int)
(declare-fun w () Int)
(declare-fun y () Int)
(assert
 (let (($x37 (> z x)))
 (let (($x10 (= (- 62) w)))
 (let (($x63 (< 93 x)))
 (let (($x62 (and (distinct 55 y) true)))
 (let (($x23 (not $x62)))
 (let (($x94 (and (distinct 93 z) true)))
 (let (($x51 (or $x94 $x63)))
 (let (($x66 (and $x62 $x51)))
 (and (or $x23 $x23 $x94 $x51 $x66) (or $x66 $x37 $x94 $x51 $x62 $x10 $x63 $x23) (or $x10 $x37 $x23 $x94 $x63 $x51 $x66 $x23) (or $x23 $x23 $x37 $x66 $x10 $x62) (or $x10 $x63 $x23 $x94) (or $x62 $x23 $x63 $x66 $x23 $x94 $x37) (or $x10 $x63 $x37 $x51) $x94 (or $x23 $x63 $x10 $x37)))))))))))
(check-sat)